32	0

0	1	2
8	1	3
9	1	4
7	1	5
3	1	6
8	1	7
5	1	8
4	1	9
6	1	10
4	1	11
5	1	12
3	1	13
2	2	14	15
1	1	16
1	1	16
7	1	17
5	1	18
7	1	19
6	2	20	21
9	1	23
5	1	22
1	1	23
10	1	24
1	2	25	26
3	1	27
8	1	27
8	1	28
7	1	29
7	1	30
5	1	31
5	1	32
0	0
